(set-logic QF_UF)
(declare-fun A0 () Bool)
(declare-fun A1 () Bool)
(declare-fun A3 () Bool)
(declare-fun A4 () Bool)
(declare-fun A6 () Bool)
(declare-fun A7 () Bool)
(declare-fun A8 () Bool)
(declare-fun A9 () Bool)
(declare-fun A11 () Bool)
(declare-fun A12 () Bool)
(declare-fun A13 () Bool)
(declare-fun A14 () Bool)
(declare-fun A15 () Bool)
(declare-fun A16 () Bool)
(declare-fun A17 () Bool)
(declare-fun A18 () Bool)
(declare-fun A19 () Bool)
(declare-fun A20 () Bool)
(declare-fun A21 () Bool)
(declare-fun A22 () Bool)
(declare-fun A23 () Bool)
(declare-fun A24 () Bool)
(assert (let ((.def_0 (or A13 A15))) (let ((.def_1 (not .def_0))) (let ((.def_2 (or A23 A16))) (let ((.def_3 (not .def_2))) (let ((.def_4 (or .def_3 .def_1))) (let ((.def_5 (not A22))) (let ((.def_6 (and .def_5 A1))) (let ((.def_7 (not .def_6))) (let ((.def_8 (not A0))) (let ((.def_9 (and .def_8 A19))) (let ((.def_10 (= .def_9 .def_7))) (let ((.def_11 (not .def_10))) (let ((.def_12 (or .def_11 .def_4))) (let ((.def_13 (and A14 A16))) (let ((.def_14 (not .def_13))) (let ((.def_15 (not A3))) (let ((.def_16 (not A11))) (let ((.def_17 (= .def_16 .def_15))) (let ((.def_18 (and .def_17 .def_14))) (let ((.def_19 (not A6))) (let ((.def_20 (or .def_19 A14))) (let ((.def_21 (not A8))) (let ((.def_22 (not A17))) (let ((.def_23 (and .def_22 .def_21))) (let ((.def_24 (not .def_23))) (let ((.def_25 (or .def_24 .def_20))) (let ((.def_26 (not .def_25))) (let ((.def_27 (or .def_26 .def_18))) (let ((.def_28 (and .def_27 .def_12))) (let ((.def_29 (not A20))) (let ((.def_30 (= A24 .def_29))) (let ((.def_31 (not .def_30))) (let ((.def_32 (= A19 A23))) (let ((.def_33 (and .def_32 .def_31))) (let ((.def_34 (not A15))) (let ((.def_35 (and A4 .def_34))) (let ((.def_36 (not .def_35))) (let ((.def_37 (and A0 A24))) (let ((.def_38 (not .def_37))) (let ((.def_39 (or .def_38 .def_36))) (let ((.def_40 (= .def_39 .def_33))) (let ((.def_41 (not .def_40))) (let ((.def_42 (or .def_22 A24))) (let ((.def_43 (not .def_42))) (let ((.def_44 (not A16))) (let ((.def_45 (and .def_44 A24))) (let ((.def_46 (or .def_45 .def_43))) (let ((.def_47 (and A4 A8))) (let ((.def_48 (and A18 .def_44))) (let ((.def_49 (not .def_48))) (let ((.def_50 (and .def_49 .def_47))) (let ((.def_51 (not .def_50))) (let ((.def_52 (or .def_51 .def_46))) (let ((.def_53 (not .def_52))) (let ((.def_54 (or .def_53 .def_41))) (let ((.def_55 (or .def_54 .def_28))) (let ((.def_56 (or A18 .def_34))) (let ((.def_57 (not A9))) (let ((.def_58 (= .def_15 .def_57))) (let ((.def_59 (not .def_58))) (let ((.def_60 (and .def_59 .def_56))) (let ((.def_61 (not .def_60))) (let ((.def_62 (= A8 A23))) (let ((.def_63 (not .def_62))) (let ((.def_64 (not A19))) (let ((.def_65 (or A17 .def_64))) (let ((.def_66 (not .def_65))) (let ((.def_67 (and .def_66 .def_63))) (let ((.def_68 (and .def_67 .def_61))) (let ((.def_69 (not A18))) (let ((.def_70 (= .def_69 A4))) (let ((.def_71 (and A21 A9))) (let ((.def_72 (and .def_71 .def_70))) (let ((.def_73 (not A23))) (let ((.def_74 (and A19 .def_73))) (let ((.def_75 (not A21))) (let ((.def_76 (and A17 .def_75))) (let ((.def_77 (not .def_76))) (let ((.def_78 (or .def_77 .def_74))) (let ((.def_79 (not .def_78))) (let ((.def_80 (or .def_79 .def_72))) (let ((.def_81 (not .def_80))) (let ((.def_82 (or .def_81 .def_68))) (let ((.def_83 (not .def_82))) (let ((.def_84 (not A12))) (let ((.def_85 (or A9 .def_84))) (let ((.def_86 (not .def_85))) (let ((.def_87 (not A7))) (let ((.def_88 (or .def_87 .def_69))) (let ((.def_89 (not .def_88))) (let ((.def_90 (or .def_89 .def_86))) (let ((.def_91 (= .def_84 .def_8))) (let ((.def_92 (or A8 A24))) (let ((.def_93 (and .def_92 .def_91))) (let ((.def_94 (or .def_93 .def_90))) (let ((.def_95 (and .def_44 A0))) (let ((.def_96 (not .def_95))) (let ((.def_97 (and .def_22 .def_64))) (let ((.def_98 (not .def_97))) (let ((.def_99 (and .def_98 .def_96))) (let ((.def_100 (not A13))) (let ((.def_101 (or .def_16 .def_100))) (let ((.def_102 (not .def_101))) (let ((.def_103 (or A9 .def_5))) (let ((.def_104 (= .def_103 .def_102))) (let ((.def_105 (not .def_104))) (let ((.def_106 (and .def_105 .def_99))) (let ((.def_107 (not .def_106))) (let ((.def_108 (and .def_107 .def_94))) (let ((.def_109 (not .def_108))) (let ((.def_110 (and .def_109 .def_83))) (let ((.def_111 (not .def_110))) (let ((.def_112 (= .def_111 .def_55))) (let ((.def_113 (not .def_112))) .def_113)))))))))))))))))))))))))))))))))))))))))))))))))))))))))))))))))))))))))))))))))))))))))))))))))))))))))))))))))))
(check-sat)
